Route #1: 1 31 46 29 25 35 10 4 49 34 1
Route #2: 1 11 2 40 41 12 53 28 21 1
Route #3: 1 8 24 32 50 20 39 44 6 52 47 1
Route #4: 1 48 23 37 51 17 19 33 14 36 1
Route #5: 1 43 3 9 16 45 30 7 1
Route #6: 1 5 22 15 42 13 26 1
Route #7: 1 38 27 54 18 1
cost 3035.4133113992452